p cnf 15 53
1 2 9 0
1 10 -15 0
1 2 -8 0
2 10 -14 0
-4 -12 -15 0
-2 4 -8 0
-5 7 -10 0
7 12 -13 0
8 11 12 0
-3 -9 -14 0
1 5 -8 0
2 -4 -9 0
-1 13 14 0
-6 -7 14 0
-5 9 10 0
3 -11 14 0
1 9 14 0
-2 -9 14 0
-3 10 11 0
5 7 -12 0
3 -5 -8 0
4 10 12 0
-1 3 -9 0
2 12 -14 0
2 5 11 0
-2 7 -8 0
-6 -9 12 0
2 4 -15 0
-1 2 5 0
2 7 8 0
5 9 14 0
-4 -5 -11 0
-1 9 -15 0
6 12 -14 0
11 14 15 0
-7 -14 -15 0
1 9 -10 0
4 5 -12 0
1 5 7 0
6 -9 13 0
7 8 9 0
-9 -12 -15 0
-9 10 -13 0
12 -14 -15 0
-5 12 -13 0
2 -12 -13 0
1 3 -15 0
1 -3 -6 0
3 -5 -14 0
8 -13 -14 0
-5 -6 -8 0
-2 -13 15 0
-4 -11 14 0
